(declare-fun var0 () String)
(assert (RegexIn var0 (RegexConcat (RegexStar (RegexPlus (Str2Reg "::"))) (RegexConcat (RegexPlus (RegexUnion (Str2Reg "..") (Str2Reg "///"))) (RegexConcat (RegexPlus (RegexPlus (Str2Reg "-"))) (RegexConcat (RegexStar (RegexUnion (Str2Reg "++") (Str2Reg ",,,"))) (RegexConcat (RegexPlus (RegexStar (Str2Reg "***"))) (RegexConcat (RegexPlus (RegexPlus (Str2Reg ")))"))) (RegexConcat (RegexStar (RegexUnion (Str2Reg "'") (Str2Reg "(("))) (RegexConcat (RegexUnion (RegexStar (Str2Reg "%%%")) (RegexStar (Str2Reg "&"))) (RegexConcat (RegexPlus (RegexStar (Str2Reg "$$$"))) (RegexConcat (RegexStar (RegexStar (Str2Reg "#"))) (RegexConcat (RegexUnion (RegexUnion (Str2Reg "ZZZ") (Str2Reg "!")) (RegexPlus (Str2Reg "\""))) (RegexConcat (RegexStar (RegexPlus (Str2Reg "YYY"))) (RegexConcat (RegexUnion (RegexPlus (Str2Reg "V")) (RegexUnion (Str2Reg "W") (Str2Reg "X"))) (RegexConcat (RegexStar (RegexPlus (Str2Reg "U"))) (RegexConcat (RegexStar (RegexStar (Str2Reg "T"))) (RegexConcat (RegexPlus (RegexPlus (Str2Reg "SS"))) (RegexConcat (RegexUnion (RegexUnion (Str2Reg "OOO") (Str2Reg "PP")) (RegexUnion (Str2Reg "QQ") (Str2Reg "RR"))) (RegexConcat (RegexStar (RegexStar (Str2Reg "N"))) (RegexConcat (RegexStar (RegexUnion (Str2Reg "L") (Str2Reg "M"))) (RegexConcat (RegexPlus (RegexPlus (Str2Reg "KK"))) (RegexConcat (RegexPlus (RegexPlus (Str2Reg "JJJ"))) (RegexConcat (RegexPlus (RegexUnion (Str2Reg "HH") (Str2Reg "I"))) (RegexConcat (RegexPlus (RegexStar (Str2Reg "GGG"))) (RegexConcat (RegexStar (RegexPlus (Str2Reg "FF"))) (RegexConcat (RegexUnion (RegexPlus (Str2Reg "DD")) (RegexPlus (Str2Reg "E"))) (RegexConcat (RegexPlus (RegexPlus (Str2Reg "CC"))) (RegexConcat (RegexStar (RegexStar (Str2Reg "B"))) (RegexConcat (RegexUnion (RegexUnion (Str2Reg "yy") (Str2Reg "z")) (RegexPlus (Str2Reg "AA"))) (RegexConcat (RegexStar (RegexUnion (Str2Reg "w") (Str2Reg "xx"))) (RegexConcat (RegexPlus (RegexStar (Str2Reg "vv"))) (RegexConcat (RegexUnion (RegexStar (Str2Reg "ss")) (RegexUnion (Str2Reg "t") (Str2Reg "uuu"))) (RegexConcat (RegexUnion (RegexUnion (Str2Reg "pp") (Str2Reg "q")) (RegexPlus (Str2Reg "r"))) (RegexConcat (RegexPlus (RegexPlus (Str2Reg "ooo"))) (RegexConcat (RegexStar (RegexStar (Str2Reg "n"))) (RegexConcat (RegexUnion (RegexUnion (Str2Reg "k") (Str2Reg "ll")) (RegexStar (Str2Reg "mmm"))) (RegexConcat (RegexPlus (RegexUnion (Str2Reg "i") (Str2Reg "jj"))) (RegexConcat (RegexStar (RegexStar (Str2Reg "hh"))) (RegexConcat (RegexPlus (RegexStar (Str2Reg "gg"))) (RegexConcat (RegexStar (RegexStar (Str2Reg "f"))) (RegexConcat (RegexStar (RegexUnion (Str2Reg "dd") (Str2Reg "ee"))) (RegexConcat (RegexUnion (RegexUnion (Str2Reg "a") (Str2Reg "bb")) (RegexPlus (Str2Reg "c"))) (RegexConcat (RegexPlus (RegexPlus (Str2Reg "99"))) (RegexConcat (RegexUnion (RegexUnion (Str2Reg "555") (Str2Reg "6")) (RegexUnion (Str2Reg "77") (Str2Reg "888"))) (RegexConcat (RegexStar (RegexUnion (Str2Reg "33") (Str2Reg "44"))) (RegexConcat (RegexPlus (RegexStar (Str2Reg "222"))) (RegexConcat (RegexUnion (RegexPlus (Str2Reg "000")) (RegexStar (Str2Reg "11"))) (RegexConcat (RegexUnion (RegexStar (Str2Reg "}")) (RegexPlus (Str2Reg "~~"))) (RegexConcat (RegexUnion (RegexStar (Str2Reg "`")) (RegexUnion (Str2Reg "{{") (Str2Reg "|"))) (RegexConcat (RegexStar (RegexUnion (Str2Reg "^^") (Str2Reg "___"))) (RegexConcat (RegexStar (RegexUnion (Str2Reg "\\") (Str2Reg "]]"))) (RegexConcat (RegexStar (RegexPlus (Str2Reg "[["))) (RegexConcat (RegexUnion (RegexUnion (Str2Reg "==") (Str2Reg ">>>")) (RegexUnion (Str2Reg "?") (Str2Reg "@@@"))) (RegexConcat (RegexStar (RegexPlus (Str2Reg "<<<"))) (RegexConcat (RegexUnion (RegexUnion (Str2Reg "///") (Str2Reg ":::")) (RegexPlus (Str2Reg ";;"))) (RegexConcat (RegexPlus (RegexStar (Str2Reg ".."))) (RegexConcat (RegexUnion (RegexUnion (Str2Reg "*") (Str2Reg "+++")) (RegexUnion (Str2Reg ",,,") (Str2Reg "---"))) (RegexConcat (RegexStar (RegexPlus (Str2Reg ")"))) (RegexConcat (RegexUnion (RegexUnion (Str2Reg "%") (Str2Reg "&&&")) (RegexUnion (Str2Reg "'''") (Str2Reg "("))) (RegexConcat (RegexPlus (RegexUnion (Str2Reg "###") (Str2Reg "$"))) (RegexConcat (RegexStar (RegexPlus (Str2Reg "\"\""))) (RegexConcat (RegexStar (RegexUnion (Str2Reg "Z") (Str2Reg "!!!"))) (RegexConcat (RegexUnion (RegexStar (Str2Reg "W")) (RegexUnion (Str2Reg "X") (Str2Reg "YYY"))) (RegexConcat (RegexUnion (RegexPlus (Str2Reg "UU")) (RegexStar (Str2Reg "VVV"))) (RegexConcat (RegexPlus (RegexStar (Str2Reg "TTT"))) (RegexConcat (RegexUnion (RegexUnion (Str2Reg "QQQ") (Str2Reg "R")) (RegexPlus (Str2Reg "SSS"))) (RegexConcat (RegexStar (RegexUnion (Str2Reg "O") (Str2Reg "PPP"))) (RegexConcat (RegexPlus (RegexStar (Str2Reg "N"))) (RegexConcat (RegexPlus (RegexUnion (Str2Reg "LLL") (Str2Reg "MM"))) (RegexConcat (RegexStar (RegexUnion (Str2Reg "J") (Str2Reg "KK"))) (RegexConcat (RegexStar (RegexUnion (Str2Reg "H") (Str2Reg "III"))) (RegexConcat (RegexPlus (RegexPlus (Str2Reg "GGG"))) (RegexConcat (RegexStar (RegexUnion (Str2Reg "EEE") (Str2Reg "FFF"))) (RegexConcat (RegexPlus (RegexUnion (Str2Reg "C") (Str2Reg "DDD"))) (RegexConcat (RegexStar (RegexPlus (Str2Reg "B"))) (RegexConcat (RegexPlus (RegexStar (Str2Reg "AA"))) (RegexConcat (RegexStar (RegexUnion (Str2Reg "yy") (Str2Reg "zzz"))) (RegexConcat (RegexStar (RegexUnion (Str2Reg "www") (Str2Reg "x"))) (RegexConcat (RegexStar (RegexUnion (Str2Reg "uu") (Str2Reg "vv"))) (RegexConcat (RegexUnion (RegexUnion (Str2Reg "rrr") (Str2Reg "s")) (RegexStar (Str2Reg "ttt"))) (RegexConcat (RegexStar (RegexStar (Str2Reg "q"))) (RegexConcat (RegexUnion (RegexUnion (Str2Reg "mmm") (Str2Reg "nn")) (RegexUnion (Str2Reg "oo") (Str2Reg "ppp"))) (RegexConcat (RegexStar (RegexPlus (Str2Reg "ll"))) (RegexConcat (RegexStar (RegexStar (Str2Reg "kk"))) (RegexConcat (RegexStar (RegexUnion (Str2Reg "iii") (Str2Reg "jj"))) (RegexConcat (RegexPlus (RegexStar (Str2Reg "hh"))) (RegexConcat (RegexStar (RegexUnion (Str2Reg "f") (Str2Reg "gg"))) (RegexConcat (RegexStar (RegexPlus (Str2Reg "e"))) (RegexConcat (RegexStar (RegexUnion (Str2Reg "cc") (Str2Reg "ddd"))) (RegexConcat (RegexPlus (RegexUnion (Str2Reg "aaa") (Str2Reg "bbb"))) (RegexConcat (RegexPlus (RegexPlus (Str2Reg "9"))) (RegexConcat (RegexPlus (RegexUnion (Str2Reg "777") (Str2Reg "8"))) (RegexConcat (RegexStar (RegexUnion (Str2Reg "55") (Str2Reg "6"))) (RegexConcat (RegexPlus (RegexUnion (Str2Reg "333") (Str2Reg "44"))) (RegexConcat (RegexPlus (RegexPlus (Str2Reg "22"))) (RegexConcat (RegexUnion (RegexStar (Str2Reg "000")) (RegexPlus (Str2Reg "11"))) (RegexConcat (RegexUnion (RegexStar (Str2Reg "}}}")) (RegexStar (Str2Reg "~~"))) (RegexConcat (RegexPlus (RegexStar (Str2Reg "||"))) (RegexConcat (RegexStar (RegexUnion (Str2Reg "`") (Str2Reg "{"))) (RegexConcat (RegexStar (RegexStar (Str2Reg "__"))) (RegexConcat (RegexStar (RegexStar (Str2Reg "^^"))) (RegexConcat (RegexPlus (RegexUnion (Str2Reg "\\\\\\") (Str2Reg "]"))) (RegexConcat (RegexStar (RegexStar (Str2Reg "[["))) (RegexConcat (RegexPlus (RegexPlus (Str2Reg "@"))) (RegexConcat (RegexStar (RegexStar (Str2Reg "??"))) (RegexConcat (RegexUnion (RegexUnion (Str2Reg "<<<") (Str2Reg "==")) (RegexPlus (Str2Reg ">>>"))) (RegexConcat (RegexStar (RegexStar (Str2Reg ";;;"))) (RegexConcat (RegexUnion (RegexUnion (Str2Reg ".") (Str2Reg "///")) (RegexStar (Str2Reg ":::"))) (RegexConcat (RegexUnion (RegexStar (Str2Reg ",,,")) (RegexPlus (Str2Reg "--"))) (RegexConcat (RegexUnion (RegexUnion (Str2Reg ")))") (Str2Reg "***")) (RegexPlus (Str2Reg "++"))) (RegexConcat (RegexUnion (RegexStar (Str2Reg "'''")) (RegexPlus (Str2Reg "("))) (RegexConcat (RegexStar (RegexPlus (Str2Reg "&"))) (RegexConcat (RegexPlus (RegexUnion (Str2Reg "$") (Str2Reg "%%"))) (RegexConcat (RegexPlus (RegexPlus (Str2Reg "###"))) (RegexConcat (RegexStar (RegexPlus (Str2Reg "\""))) (RegexConcat (RegexPlus (RegexStar (Str2Reg "!!!"))) (RegexConcat (RegexPlus (RegexPlus (Str2Reg "Z"))) (RegexConcat (RegexUnion (RegexUnion (Str2Reg "WWW") (Str2Reg "XX")) (RegexPlus (Str2Reg "Y"))) (RegexConcat (RegexStar (RegexStar (Str2Reg "V"))) (RegexConcat (RegexStar (RegexPlus (Str2Reg "U"))) (RegexConcat (RegexStar (RegexUnion (Str2Reg "S") (Str2Reg "TT"))) (RegexConcat (RegexStar (RegexPlus (Str2Reg "R"))) (RegexConcat (RegexStar (RegexUnion (Str2Reg "PPP") (Str2Reg "QQ"))) (RegexConcat (RegexStar (RegexPlus (Str2Reg "O"))) (RegexConcat (RegexUnion (RegexPlus (Str2Reg "MM")) (RegexStar (Str2Reg "NNN"))) (RegexConcat (RegexStar (RegexPlus (Str2Reg "L"))) (RegexConcat (RegexStar (RegexUnion (Str2Reg "JJ") (Str2Reg "K"))) (RegexConcat (RegexPlus (RegexUnion (Str2Reg "H") (Str2Reg "II"))) (RegexConcat (RegexPlus (RegexUnion (Str2Reg "F") (Str2Reg "GGG"))) (RegexConcat (RegexUnion (RegexStar (Str2Reg "D")) (RegexStar (Str2Reg "EEE"))) (RegexConcat (RegexPlus (RegexUnion (Str2Reg "BB") (Str2Reg "CC"))) (RegexConcat (RegexUnion (RegexPlus (Str2Reg "z")) (RegexStar (Str2Reg "AAA"))) (RegexConcat (RegexStar (RegexStar (Str2Reg "yy"))) (RegexConcat (RegexPlus (RegexPlus (Str2Reg "xxx"))) (RegexConcat (RegexUnion (RegexUnion (Str2Reg "t") (Str2Reg "uu")) (RegexUnion (Str2Reg "vvv") (Str2Reg "ww"))) (RegexConcat (RegexStar (RegexUnion (Str2Reg "rr") (Str2Reg "s"))) (RegexConcat (RegexUnion (RegexPlus (Str2Reg "pp")) (RegexStar (Str2Reg "qq"))) (RegexConcat (RegexPlus (RegexUnion (Str2Reg "nnn") (Str2Reg "ooo"))) (RegexConcat (RegexPlus (RegexUnion (Str2Reg "lll") (Str2Reg "m"))) (RegexConcat (RegexStar (RegexPlus (Str2Reg "kkk"))) (RegexConcat (RegexUnion (RegexPlus (Str2Reg "hhh")) (RegexUnion (Str2Reg "i") (Str2Reg "jj"))) (RegexConcat (RegexStar (RegexStar (Str2Reg "ggg"))) (RegexConcat (RegexStar (RegexStar (Str2Reg "f"))) (RegexConcat (RegexUnion (RegexUnion (Str2Reg "cc") (Str2Reg "dd")) (RegexPlus (Str2Reg "e"))) (RegexConcat (RegexUnion (RegexPlus (Str2Reg "a")) (RegexPlus (Str2Reg "bb"))) (RegexConcat (RegexUnion (RegexPlus (Str2Reg "88")) (RegexStar (Str2Reg "99"))) (RegexConcat (RegexUnion (RegexUnion (Str2Reg "5") (Str2Reg "666")) (RegexStar (Str2Reg "7"))) (RegexConcat (RegexUnion (RegexUnion (Str2Reg "22") (Str2Reg "33")) (RegexPlus (Str2Reg "444"))) (RegexConcat (RegexUnion (RegexUnion (Str2Reg "}}") (Str2Reg "~")) (RegexUnion (Str2Reg "0") (Str2Reg "11"))) (RegexConcat (RegexStar (RegexPlus (Str2Reg "|"))) (RegexConcat (RegexUnion (RegexPlus (Str2Reg "__")) (RegexUnion (Str2Reg "`") (Str2Reg "{"))) (RegexConcat (RegexUnion (RegexPlus (Str2Reg "]")) (RegexPlus (Str2Reg "^^"))) (RegexConcat (RegexPlus (RegexPlus (Str2Reg "\\\\"))) (RegexConcat (RegexStar (RegexPlus (Str2Reg "["))) (RegexConcat (RegexUnion (RegexPlus (Str2Reg "???")) (RegexStar (Str2Reg "@@"))) (RegexConcat (RegexPlus (RegexPlus (Str2Reg ">"))) (RegexConcat (RegexUnion (RegexUnion (Str2Reg ";") (Str2Reg "<")) (RegexStar (Str2Reg "="))) (RegexConcat (RegexStar (RegexStar (Str2Reg "::"))) (RegexConcat (RegexUnion (RegexPlus (Str2Reg "-")) (RegexUnion (Str2Reg "...") (Str2Reg "/"))) (RegexConcat (RegexUnion (RegexPlus (Str2Reg "+")) (RegexPlus (Str2Reg ",,,"))) (RegexConcat (RegexStar (RegexPlus (Str2Reg "**"))) (RegexConcat (RegexPlus (RegexUnion (Str2Reg "((") (Str2Reg ")"))) (RegexConcat (RegexStar (RegexPlus (Str2Reg "'"))) (RegexConcat (RegexPlus (RegexUnion (Str2Reg "%%%") (Str2Reg "&"))) (RegexConcat (RegexStar (RegexUnion (Str2Reg "#") (Str2Reg "$$$"))) (RegexConcat (RegexStar (RegexStar (Str2Reg "\"\""))) (RegexConcat (RegexUnion (RegexPlus (Str2Reg "YY")) (RegexUnion (Str2Reg "Z") (Str2Reg "!!!"))) (RegexConcat (RegexStar (RegexStar (Str2Reg "X"))) (RegexConcat (RegexUnion (RegexPlus (Str2Reg "VV")) (RegexPlus (Str2Reg "W"))) (RegexConcat (RegexUnion (RegexPlus (Str2Reg "TT")) (RegexStar (Str2Reg "U"))) (RegexConcat (RegexPlus (RegexPlus (Str2Reg "SS"))) (RegexConcat (RegexUnion (RegexStar (Str2Reg "QQQ")) (RegexPlus (Str2Reg "R"))) (RegexConcat (RegexStar (RegexPlus (Str2Reg "PPP"))) (RegexConcat (RegexUnion (RegexUnion (Str2Reg "L") (Str2Reg "MMM")) (RegexUnion (Str2Reg "NN") (Str2Reg "OO"))) (RegexConcat (RegexStar (RegexStar (Str2Reg "KK"))) (RegexConcat (RegexPlus (RegexUnion (Str2Reg "III") (Str2Reg "J"))) (RegexConcat (RegexUnion (RegexPlus (Str2Reg "GG")) (RegexPlus (Str2Reg "HHH"))) (RegexConcat (RegexUnion (RegexStar (Str2Reg "E")) (RegexPlus (Str2Reg "FFF"))) (RegexConcat (RegexUnion (RegexStar (Str2Reg "BB")) (RegexUnion (Str2Reg "CC") (Str2Reg "DDD"))) (RegexConcat (RegexStar (RegexStar (Str2Reg "A"))) (RegexConcat (RegexUnion (RegexPlus (Str2Reg "y")) (RegexStar (Str2Reg "zzz"))) (RegexConcat (RegexPlus (RegexPlus (Str2Reg "xxx"))) (RegexConcat (RegexUnion (RegexUnion (Str2Reg "tt") (Str2Reg "uu")) (RegexUnion (Str2Reg "v") (Str2Reg "w"))) (RegexConcat (RegexStar (RegexUnion (Str2Reg "rr") (Str2Reg "ss"))) (RegexConcat (RegexStar (RegexStar (Str2Reg "q"))) (RegexConcat (RegexStar (RegexUnion (Str2Reg "ooo") (Str2Reg "ppp"))) (RegexConcat (RegexPlus (RegexUnion (Str2Reg "mm") (Str2Reg "nnn"))) (RegexConcat (RegexUnion (RegexPlus (Str2Reg "kk")) (RegexPlus (Str2Reg "lll"))) (RegexConcat (RegexUnion (RegexPlus (Str2Reg "hh")) (RegexUnion (Str2Reg "i") (Str2Reg "j"))) (RegexConcat (RegexPlus (RegexStar (Str2Reg "ggg"))) (RegexConcat (RegexUnion (RegexStar (Str2Reg "dd")) (RegexUnion (Str2Reg "e") (Str2Reg "fff"))) (RegexConcat (RegexPlus (RegexPlus (Str2Reg "c"))) (RegexConcat (RegexUnion (RegexPlus (Str2Reg "a")) (RegexPlus (Str2Reg "b"))) (RegexConcat (RegexStar (RegexUnion (Str2Reg "8") (Str2Reg "99"))) (RegexConcat (RegexUnion (RegexStar (Str2Reg "666")) (RegexStar (Str2Reg "7"))) (RegexConcat (RegexUnion (RegexUnion (Str2Reg "3") (Str2Reg "4")) (RegexPlus (Str2Reg "555"))) (RegexConcat (RegexPlus (RegexUnion (Str2Reg "1") (Str2Reg "22"))) (RegexStar (RegexPlus (Str2Reg "0")))))))))))))))))))))))))))))))))))))))))))))))))))))))))))))))))))))))))))))))))))))))))))))))))))))))))))))))))))))))))))))))))))))))))))))))))))))))))))))))))))))))))))))))))))))))))))))))))))))))))
(check-sat)